(set-logic ALL)
(declare-const k Int)
(declare-fun s () (_ BitVec k))
(declare-fun t () (_ BitVec k))
(assert (not (distinct (distinct s (bvlshr t (bvurem t (_ bv0 k)))) (distinct s (_ bv0 k)))))
(check-sat)
